NAME          ClpDefau  FREE
ROWS
 N  OBJROW
 L  ZMUNI1_PCT
 L  ZMUNI2_PCT
 L  ZMUNI3_PCT
 L  ZMUNI4_PCT
 L  ZMUNI5_PCT
 L  ZMUNI6_PCT
 L  ZMUNI7_PCT
 L  ZMUNI8_PCT
 L  ZMUNI9_PCT
COLUMNS
    QMUNI1 OBJROW 1.          
    QMUNI1 ZMUNI1_PCT 28804.3976  
    QMUNI1 ZMUNI2_PCT 1870.7276   
    QMUNI1 ZMUNI3_PCT 4926.8723   
    QMUNI1 ZMUNI4_PCT 3287.6968   
    QMUNI1 ZMUNI5_PCT  -311.9468  
    QMUNI1 ZMUNI6_PCT  -93.8415   
    QMUNI1 ZMUNI7_PCT 1166.15296  
    QMUNI1 ZMUNI8_PCT 831.41327   
    QMUNI1 ZMUNI9_PCT  -140.8577  
    QMUNI2 OBJROW 1.          
    QMUNI2 ZMUNI1_PCT 1649.6659   
    QMUNI2 ZMUNI2_PCT 32715.1299  
    QMUNI2 ZMUNI3_PCT 2633.667    
    QMUNI2 ZMUNI4_PCT 2619.7433   
    QMUNI2 ZMUNI5_PCT  -518.0358  
    QMUNI2 ZMUNI6_PCT  -457.7636  
    QMUNI2 ZMUNI7_PCT 15.02037    
    QMUNI2 ZMUNI8_PCT 241.18424   
    QMUNI2 ZMUNI9_PCT 7.8201999999
    QMUNI3 OBJROW 1.          
    QMUNI3 ZMUNI1_PCT 4740.7151   
    QMUNI3 ZMUNI2_PCT 2751.6365   
    QMUNI3 ZMUNI3_PCT 30257.0343  
    QMUNI3 ZMUNI4_PCT 5451.2024   
    QMUNI3 ZMUNI5_PCT  -352.7641  
    QMUNI3 ZMUNI6_PCT  -187.1109  
    QMUNI3 ZMUNI7_PCT 922.44149   
    QMUNI3 ZMUNI8_PCT 853.63388   
    QMUNI3 ZMUNI9_PCT 16.9754     
    QMUNI4 OBJROW 1.          
    QMUNI4 ZMUNI1_PCT 3511.0474   
    QMUNI4 ZMUNI2_PCT 3024.1013   
    QMUNI4 ZMUNI3_PCT 6185.5316   
    QMUNI4 ZMUNI4_PCT 96079.0634  
    QMUNI4 ZMUNI5_PCT  -565.3381  
    QMUNI4 ZMUNI6_PCT  -436.9735  
    QMUNI4 ZMUNI7_PCT 329.87595   
    QMUNI4 ZMUNI8_PCT 273.60916   
    QMUNI4 ZMUNI9_PCT  -444.1261  
    QMUNI5 OBJROW 1.          
    QMUNI5 ZMUNI1_PCT  -253.8681  
    QMUNI5 ZMUNI2_PCT  -348.2818  
    QMUNI5 ZMUNI3_PCT  -295.2576  
    QMUNI5 ZMUNI4_PCT  -255.7755  
    QMUNI5 ZMUNI5_PCT 28965.3778  
    QMUNI5 ZMUNI6_PCT 2228.3555   
    QMUNI5 ZMUNI7_PCT  -648.49853 
    QMUNI5 ZMUNI8_PCT  -832.84378 
    QMUNI5 ZMUNI9_PCT  -1046.7529 
    QMUNI6 OBJROW 1.          
    QMUNI6 ZMUNI1_PCT 61.7981     
    QMUNI6 ZMUNI2_PCT  -185.2035  
    QMUNI6 ZMUNI3_PCT  -27.4658   
    QMUNI6 ZMUNI4_PCT  -56.6483   
    QMUNI6 ZMUNI5_PCT 2294.159    
    QMUNI6 ZMUNI6_PCT 29755.2109  
    QMUNI6 ZMUNI7_PCT  -352.47802 
    QMUNI6 ZMUNI8_PCT  -669.28863 
    QMUNI6 ZMUNI9_PCT  -1007.1754 
    QMUNI7 OBJROW 1.          
    QMUNI7 ZMUNI1_PCT 1199.5316   
    QMUNI7 ZMUNI2_PCT 438.7856    
    QMUNI7 ZMUNI3_PCT 993.3472    
    QMUNI7 ZMUNI4_PCT 620.842     
    QMUNI7 ZMUNI5_PCT  -373.3635  
    QMUNI7 ZMUNI6_PCT  -160.408   
    QMUNI7 ZMUNI7_PCT 24727.1061  
    QMUNI7 ZMUNI8_PCT 1424.50333  
    QMUNI7 ZMUNI9_PCT  -429.058   
    QMUNI8 OBJROW 1.          
    QMUNI8 ZMUNI1_PCT 825.1191    
    QMUNI8 ZMUNI2_PCT 637.6267    
    QMUNI8 ZMUNI3_PCT 880.2414    
    QMUNI8 ZMUNI4_PCT 592.041     
    QMUNI8 ZMUNI5_PCT  -669.6701  
    QMUNI8 ZMUNI6_PCT  -595.2835  
    QMUNI8 ZMUNI7_PCT 1253.98636  
    QMUNI8 ZMUNI8_PCT 24014.85443 
    QMUNI8 ZMUNI9_PCT 52.5475     
    QMUNI9 OBJROW 1.          
    QMUNI9 ZMUNI1_PCT 1.3352      
    QMUNI9 ZMUNI2_PCT 391.6741    
    QMUNI9 ZMUNI3_PCT 135.994     
    QMUNI9 ZMUNI4_PCT 100.708     
    QMUNI9 ZMUNI5_PCT  -931.3583  
    QMUNI9 ZMUNI6_PCT  -894.9279  
    QMUNI9 ZMUNI7_PCT  -444.31686 
    QMUNI9 ZMUNI8_PCT 76.67542    
    QMUNI9 ZMUNI9_PCT 22783.2795  
RHS
    RHS ZMUNI1_PCT 4.5601151242
    RHS ZMUNI2_PCT 0.0014267529
    RHS ZMUNI3_PCT  -0.57411454
    RHS ZMUNI4_PCT 5.247952414 
    RHS ZMUNI5_PCT 12.342673397
    RHS ZMUNI6_PCT 12.929135507
    RHS ZMUNI7_PCT 1.5265948013
    RHS ZMUNI8_PCT 4.5790745568
    RHS ZMUNI9_PCT 13.578014319
BOUNDS
 LO BOUND QMUNI1 -0.001836142
 UP BOUND QMUNI1      1.1e+10
 LO BOUND QMUNI2 -0.001409634
 UP BOUND QMUNI2      1.1e+10
 LO BOUND QMUNI3 -0.001518011
 UP BOUND QMUNI3      1.1e+10
 LO BOUND QMUNI4 -0.00053067 
 UP BOUND QMUNI4      1.1e+10
 LO BOUND QMUNI5 -0.001430875
 UP BOUND QMUNI5      1.1e+10
 LO BOUND QMUNI6 -0.001654981
 UP BOUND QMUNI6      1.1e+10
 LO BOUND QMUNI7 -0.001381944
 UP BOUND QMUNI7      1.1e+10
 LO BOUND QMUNI8 -0.001474821
 UP BOUND QMUNI8      1.1e+10
 LO BOUND QMUNI9 -0.001827176
 UP BOUND QMUNI9      1.1e+10
ENDATA
